p cnf 293 1742
46 -19 28 -16 -5 0
-32 -14 7 12 22 0
35 -8 -36 -42 -3 0
36 -11 24 45 -10 0
-9 39 41 -47 10 0
19 31 2 -21 20 0
25 22 -18 -37 45 0
-45 -8 -22 -40 27 0
2 -19 -32 -7 -22 0
-32 -4 -19 7 -24 0
19 23 -8 -27 -17 0
22 -23 33 40 13 0
15 -23 32 -35 -6 0
17 48 -16 47 8 0
-42 -16 -39 -24 46 0
36 -28 -35 40 -21 0
16 25 2 -46 9 0
20 44 -35 5 -42 0
50 -2 -47 -40 -5 0
-30 35 -33 41 24 0
39 17 -41 48 -7 0
32 43 2 -45 3 0
44 -18 -46 47 -5 0
48 34 -32 -25 4 0
44 25 -22 -15 41 0
46 15 23 31 43 0
-23 -28 -2 33 -8 0
30 -48 -2 -18 41 0
-43 30 3 -16 -22 0
10 25 47 -15 5 0
44 -37 -3 36 18 0
49 -29 43 32 7 0
12 30 -28 44 5 0
18 -50 1 45 17 0
-24 41 50 -18 -39 0
5 41 -45 -15 -29 0
-40 -28 6 29 -44 0
50 12 32 14 31 0
-45 18 26 -9 -38 0
-46 -49 4 43 -22 0
23 -30 50 -47 -7 0
4 -7 -30 8 -1 0
-29 12 -41 -21 -19 0
-43 -40 7 34 26 0
8 -27 19 -6 40 0
4 -2 21 10 12 0
-21 41 -34 -9 10 0
-50 26 -39 38 1 0
-20 2 39 -37 7 0
8 -20 -40 37 -28 0
-4 27 50 -23 -38 0
29 -10 28 -33 25 0
44 -7 -3 -25 -35 0
2 23 -44 -43 -25 0
21 -33 34 7 25 0
-14 -50 -35 -16 -47 0
-23 18 4 36 -19 0
-10 34 16 27 -30 0
11 -30 -29 -34 -28 0
26 41 -1 -15 -45 0
-9 -10 21 26 42 0
-33 44 37 -10 -14 0
15 -20 -31 41 35 0
41 13 -5 -32 7 0
24 44 16 -23 48 0
-35 -41 -17 50 21 0
-1 -10 -14 38 41 0
26 -8 -50 -30 -18 0
-45 18 23 8 20 0
45 -47 -9 23 -25 0
-29 22 -27 17 12 0
-23 -14 9 47 10 0
-36 -20 7 48 25 0
17 -7 22 -18 -6 0
-34 15 28 8 21 0
46 -36 38 -5 17 0
36 29 39 -45 44 0
23 -1 24 5 31 0
-43 2 23 15 -7 0
-10 27 34 40 -8 0
-23 28 -37 -19 -4 0
16 10 -43 27 -31 0
33 8 13 -24 19 0
-36 -45 18 11 -12 0
28 19 45 -49 40 0
49 -17 -2 -45 47 0
-38 -40 -36 -50 22 0
46 -49 14 -23 5 0
-37 25 -10 14 -39 0
-12 38 -6 -35 -20 0
30 -29 -46 -2 -26 0
4 -29 -23 16 48 0
5 -43 38 2 -28 0
49 48 -1 -41 -25 0
30 -42 28 25 -33 0
23 47 -24 -9 45 0
-2 -40 -25 4 -27 0
46 8 13 -43 -7 0
48 -40 -4 30 3 0
-24 -45 -10 -3 18 0
3 -32 -26 15 -33 0
38 27 -21 14 -33 0
6 45 37 -11 -7 0
-38 46 37 -39 -40 0
39 36 -14 50 -7 0
-47 -41 -9 5 -37 0
34 35 -31 16 -4 0
-21 41 34 42 49 0
1 46 7 3 45 0
-4 -6 39 -31 41 0
-26 -49 31 -24 41 0
38 -13 10 -30 12 0
-1 -22 -21 19 -26 0
-35 -5 6 47 -15 0
33 -29 -11 -25 41 0
-9 49 -38 -23 -13 0
26 22 45 4 41 0
36 -19 -29 15 -38 0
26 48 19 28 7 0
13 43 -34 -32 44 0
-49 -43 -17 -14 33 0
17 5 8 13 -22 0
1 -25 -2 -37 46 0
9 4 34 13 -49 0
-18 -13 11 -16 31 0
9 49 -36 3 -25 0
-46 10 -26 -20 -35 0
-10 -32 -22 41 6 0
32 -11 -33 -34 37 0
44 9 6 33 -50 0
-44 35 11 -36 6 0
37 4 -24 20 -13 0
-5 -42 -45 -38 10 0
-3 -24 16 -34 -22 0
31 -28 14 30 1 0
45 13 4 -41 -34 0
1 24 -41 -31 -4 0
-48 -3 -6 -9 -40 0
-50 -21 -6 -39 18 0
-1 49 -33 45 -38 0
-29 44 28 -15 9 0
22 -33 -24 -2 16 0
35 -31 -39 -4 -3 0
3 34 -6 9 46 0
-23 -37 -18 42 26 0
-28 17 -5 29 19 0
37 -20 -44 -42 38 0
18 -37 -26 6 3 0
38 -20 25 -3 -19 0
46 24 -12 11 -17 0
5 -35 45 -21 -33 0
-10 -23 9 22 40 0
4 28 -23 46 -32 0
-20 25 -48 35 -15 0
5 13 4 27 41 0
15 23 -11 -42 48 0
-11 10 13 28 32 0
-35 25 48 32 11 0
14 -39 -23 40 49 0
21 -9 -38 37 44 0
-5 -16 -3 -10 30 0
18 9 36 -22 7 0
-23 -7 47 2 -29 0
7 -21 -5 -14 -43 0
29 28 -18 8 32 0
22 7 -44 29 18 0
9 -7 -3 1 36 0
4 -23 38 44 20 0
-26 12 23 22 30 0
44 -1 34 33 21 0
9 -1 25 -50 -42 0
36 1 48 18 -28 0
14 -26 -33 -37 32 0
25 35 -39 -30 14 0
17 1 32 44 -35 0
-42 28 -32 -37 14 0
35 10 18 42 -47 0
13 -41 1 14 2 0
13 43 32 12 21 0
33 45 42 28 -10 0
27 -36 45 37 -15 0
45 -17 -49 26 -12 0
43 -14 9 8 6 0
-16 -3 28 -33 -43 0
13 -25 -33 -1 7 0
-6 -8 -12 24 46 0
-12 -22 -26 -49 -45 0
24 5 -34 44 4 0
3 -50 14 -11 20 0
30 -47 -17 -12 19 0
2 -1 12 18 44 0
-43 49 -35 -38 -24 0
38 18 -16 43 -8 0
43 -16 -47 -42 -17 0
26 39 -4 -13 -28 0
-47 37 7 20 25 0
-15 -1 -20 16 43 0
41 -36 -11 3 26 0
28 41 -35 -11 -6 0
-2 9 -23 -30 -24 0
-17 14 47 23 -28 0
22 -50 18 -47 -28 0
-3 -40 -36 -38 26 0
10 18 5 -19 -35 0
28 -7 25 3 -46 0
-14 32 30 37 -50 0
-15 -3 -13 40 9 0
4 -43 -13 -5 15 0
25 -16 -46 31 24 0
-35 41 -39 40 20 0
18 20 5 2 -40 0
6 14 -5 -17 -18 0
-36 24 9 10 -8 0
-11 -21 -36 16 -13 0
33 15 38 -13 -8 0
45 21 26 -28 37 0
-2 -37 11 35 -7 0
-5 1 -34 28 -49 0
-5 16 -45 32 -42 0
36 11 9 49 -47 0
33 30 -45 -23 -7 0
-25 8 -1 -31 2 0
45 -19 -43 -42 25 0
-23 28 -33 29 42 0
3 -24 28 36 49 0
22 6 -30 -28 38 0
25 -5 42 -4 24 0
31 -43 -49 4 11 0
15 -30 -18 2 7 0
-34 -40 26 -11 -48 0
-26 19 -4 25 -36 0
-24 -49 -40 -41 -16 0
21 12 39 -27 -20 0
-33 -23 -41 9 -18 0
-43 -16 -50 -39 -37 0
31 -49 -37 15 42 0
39 -9 7 44 49 0
37 -13 -20 -34 2 0
-3 9 -39 17 8 0
33 1 -2 -41 49 0
-47 -14 -21 10 12 0
-7 37 41 45 -20 0
16 31 18 -13 25 0
30 -35 47 -44 -40 0
-40 46 41 -37 48 0
11 -28 40 19 43 0
44 -43 -42 -45 -38 0
22 -24 15 -5 -35 0
-9 -38 -27 -40 21 0
-47 -29 -35 -43 -46 0
-4 17 46 1 21 0
-9 -49 16 -3 26 0
37 14 -34 -29 8 0
-39 22 45 -11 3 0
-31 32 10 33 -27 0
-18 -30 41 -44 9 0
34 21 -9 30 -31 0
8 -21 -28 -14 40 0
43 23 -37 -9 -41 0
19 37 -26 -14 34 0
-42 -39 25 -35 46 0
-14 39 22 -50 -48 0
-25 29 39 45 43 0
-31 -24 -30 -33 -14 0
2 -30 12 6 48 0
-43 -48 50 -22 -42 0
-36 25 -47 -22 9 0
-20 6 -44 -13 39 0
-23 8 12 -45 26 0
-46 -24 8 47 1 0
-12 28 -25 26 -33 0
40 6 -33 -2 -32 0
-47 6 4 -14 -8 0
23 -34 14 -31 -38 0
-45 37 -29 -4 22 0
-26 -23 21 -29 -22 0
-30 -5 -19 -49 20 0
-11 19 40 4 -49 0
-30 40 27 15 -20 0
-10 11 -15 -50 -2 0
16 26 12 47 40 0
31 37 -34 -46 -27 0
-43 13 39 23 -19 0
-46 3 30 -7 -48 0
11 27 -29 -47 13 0
23 29 17 -11 -5 0
16 -17 30 39 5 0
-45 15 22 -37 -46 0
41 -36 -12 28 -35 0
-17 13 49 14 -27 0
19 -12 36 3 39 0
38 5 -18 -32 23 0
-9 -35 -2 37 -36 0
14 48 13 34 38 0
30 50 -18 22 48 0
-49 -11 2 35 30 0
11 19 -22 -15 -27 0
-36 -40 -33 -1 -38 0
-21 -44 11 45 48 0
-41 22 -21 -40 18 0
-12 8 10 -47 33 0
-13 38 -5 22 18 0
19 -15 -24 -40 12 0
9 -39 42 -10 -31 0
16 -41 20 -8 -12 0
-9 -8 -28 -35 25 0
-38 -17 -20 24 -22 0
29 -39 17 -1 -15 0
21 16 -11 43 29 0
12 8 42 -45 -5 0
-19 -9 -10 -2 -12 0
-35 -9 7 -25 21 0
12 23 26 -7 45 0
41 -39 -15 -11 -35 0
33 37 -38 -40 -2 0
10 -9 49 17 35 0
12 -20 -27 -47 11 0
-38 -42 35 -34 -15 0
42 -47 5 28 -32 0
-20 -7 26 42 49 0
21 25 6 50 -9 0
5 29 43 -33 1 0
35 -21 -28 -26 12 0
-35 -21 -11 -19 8 0
-8 17 -40 -32 22 0
30 -29 3 22 -25 0
-23 -36 -12 35 27 0
42 28 25 32 33 0
-4 45 -16 -22 46 0
18 43 19 -39 -26 0
15 -26 -47 -12 8 0
41 -8 27 -39 -45 0
42 36 -38 -22 27 0
1 19 35 -26 49 0
20 -48 42 12 -23 0
13 18 5 -21 -8 0
50 26 -9 45 18 0
-36 -12 -28 37 16 0
10 -15 -1 18 -14 0
8 11 -1 33 7 0
-16 48 -44 47 -33 0
-34 -24 -38 -43 7 0
-19 32 -47 -22 -49 0
5 38 33 -15 22 0
24 3 20 10 2 0
25 23 -39 -47 30 0
-11 42 -8 25 21 0
21 -27 38 -23 -6 0
-5 28 -24 7 47 0
30 37 16 8 -20 0
-2 -32 40 36 -14 0
-6 -3 1 37 -16 0
-35 41 2 -48 44 0
-19 -26 36 7 -49 0
34 35 5 -22 43 0
23 -33 -36 18 35 0
2 5 -25 -4 -9 0
-32 30 -1 -34 16 0
-37 28 30 38 23 0
27 39 12 8 4 0
37 -50 7 -47 -17 0
47 -39 -40 -43 -41 0
28 20 -6 -44 -47 0
2 30 -22 49 -19 0
2 -40 -19 -42 -30 0
10 20 -19 23 -28 0
36 4 -45 -6 -18 0
37 10 -46 22 6 0
12 -25 35 36 15 0
39 8 -19 25 -6 0
-43 41 -7 -18 5 0
-20 8 -22 -11 12 0
17 40 39 46 -6 0
47 -48 8 -43 49 0
-37 -6 -21 33 -31 0
-7 -33 17 1 -14 0
48 3 34 24 -27 0
-1 41 12 16 5 0
45 25 4 32 20 0
44 25 50 -40 -46 0
-23 -33 11 40 -8 0
-6 -18 -1 9 11 0
-20 35 -37 28 -50 0
47 41 -24 18 -44 0
21 49 -38 15 -17 0
-49 35 6 32 -36 0
-46 38 -19 -40 -48 0
-42 21 33 31 -44 0
39 1 23 -44 20 0
-39 -3 40 49 28 0
-11 -35 -2 22 -9 0
43 -20 5 39 27 0
21 11 -24 -34 25 0
38 -18 46 -30 47 0
-4 -45 -30 -11 35 0
22 23 21 36 -24 0
-1 16 43 7 -9 0
-17 15 -9 -3 26 0
34 -15 -47 -42 24 0
26 20 -25 -16 28 0
4 42 -3 26 15 0
-24 1 -17 -42 40 0
-37 46 -28 24 -30 0
-44 6 -45 -13 -27 0
27 -48 -23 47 -24 0
34 28 -16 -46 -3 0
-14 -27 -48 9 -11 0
-31 -34 13 -16 -18 0
-8 -18 38 -10 -9 0
42 22 27 -9 4 0
39 -49 3 5 -6 0
-30 -49 -35 -40 -10 0
-44 26 -27 -50 15 0
41 -6 30 13 -28 0
8 -28 -22 26 -49 0
-3 50 8 -29 16 0
-29 5 -27 -43 -15 0
-36 -22 -11 -26 19 0
-5 12 48 -19 46 0
37 14 -40 -18 -1 0
13 -49 -28 42 -46 0
4 -34 44 28 42 0
-22 -25 -36 15 -21 0
-34 37 -12 -49 -4 0
26 -16 28 -5 -35 0
-44 12 41 43 24 0
-40 -25 -50 -34 42 0
35 49 -18 48 31 0
-20 18 10 -15 25 0
45 6 -50 4 29 0
49 -33 13 42 -24 0
-13 42 -32 -39 -46 0
50 47 -30 -26 44 0
-16 36 -47 -14 20 0
-33 20 10 30 38 0
6 32 46 -2 -15 0
-29 -49 27 14 12 0
22 28 43 3 -1 0
-2 45 7 29 -1 0
-14 -1 46 -22 9 0
-31 36 17 29 -7 0
28 -40 -16 -50 -27 0
-14 -41 11 -12 -22 0
-14 -26 -45 -21 27 0
-37 -42 2 -16 -8 0
17 11 -42 28 14 0
-29 -8 -39 6 -32 0
-12 -6 -26 9 -18 0
-28 -1 8 -27 -43 0
30 28 15 -24 6 0
-24 47 -17 12 -33 0
-14 7 -49 5 16 0
-36 -14 -35 22 -12 0
-29 34 -20 38 -35 0
46 29 -16 -32 37 0
37 -28 -43 34 -20 0
-45 -15 25 -12 -27 0
-47 -30 24 -9 -37 0
33 -31 43 -30 -10 0
-49 -5 -48 15 12 0
18 -42 10 -38 -31 0
-10 -6 -42 -3 -44 0
-8 -7 43 -4 30 0
-21 11 -40 -42 -30 0
1 -42 37 18 3 0
-21 -49 24 20 -31 0
-25 -6 29 4 5 0
4 -31 13 -17 32 0
-24 2 -32 -43 33 0
41 -2 15 50 -1 0
48 -39 15 -19 32 0
17 40 -38 12 -28 0
9 6 8 -2 12 0
-39 22 25 -41 -14 0
-8 25 30 -18 -21 0
-30 -27 -47 32 37 0
-25 -50 12 -7 -13 0
39 -8 18 43 36 0
44 46 12 -22 -35 0
-18 -10 27 16 20 0
26 -7 -17 45 25 0
-28 7 21 -42 26 0
-27 -42 -31 19 35 0
-8 33 -20 39 -23 0
28 19 4 46 -2 0
-37 -20 -6 -9 -12 0
46 42 -2 24 19 0
24 31 40 30 16 0
-19 -3 1 -37 21 0
47 -34 39 -15 -20 0
-17 22 -11 -6 -15 0
6 19 9 -49 -29 0
-32 -16 -19 26 39 0
-48 -8 1 -12 21 0
-46 -7 -47 50 -39 0
-6 -44 -50 40 3 0
41 -12 27 -49 -39 0
4 -28 -23 -27 -33 0
15 -9 -22 8 17 0
37 2 -33 41 -19 0
11 -16 29 -38 28 0
-39 -11 22 17 -36 0
-25 -48 33 22 -29 0
-16 11 2 24 17 0
15 4 3 44 -8 0
-17 13 -32 34 35 0
-46 43 -34 -50 18 0
43 -4 28 -11 -47 0
-21 -41 30 6 13 0
-30 31 49 19 -14 0
1 26 12 -35 3 0
25 -2 24 -10 -21 0
-47 45 46 -49 18 0
48 28 -11 -24 -20 0
-10 -38 1 -27 -41 0
15 -5 -36 -48 -30 0
-10 28 5 11 41 0
9 -44 32 10 2 0
46 8 16 38 41 0
-18 -19 2 9 -26 0
11 37 7 12 8 0
-43 44 31 -7 -11 0
47 46 15 -16 8 0
-1 -48 44 17 42 0
-10 -39 7 44 -17 0
25 48 -11 -41 24 0
35 13 -18 -36 -23 0
23 46 -30 -10 -17 0
31 42 49 -6 -24 0
6 -40 -3 49 43 0
35 16 4 -30 14 0
-7 -15 4 -34 -22 0
-2 26 -47 -8 -20 0
-3 37 36 47 -39 0
6 -13 42 3 -14 0
6 -43 2 -35 50 0
38 35 -37 -16 -19 0
46 7 -45 8 36 0
-42 -18 28 -11 -35 0
46 -9 39 14 6 0
7 -3 40 34 -11 0
18 -39 -21 6 -26 0
-3 14 -36 16 39 0
-48 41 39 17 6 0
-9 42 24 30 25 0
11 -20 -34 10 48 0
43 39 44 24 2 0
-9 36 6 42 -15 0
-5 -18 -41 -26 17 0
-42 -21 -45 17 5 0
-48 2 -11 -32 -4 0
47 -50 23 -6 2 0
31 -26 -36 -20 -1 0
28 50 10 35 14 0
-17 27 -35 43 5 0
-26 43 50 -32 36 0
-8 -41 2 1 22 0
-26 6 -5 4 15 0
-30 -16 -33 6 39 0
-34 24 -27 26 -38 0
48 -43 -1 -19 29 0
20 -11 47 -14 15 0
-19 -44 -6 35 30 0
36 -16 50 -48 -45 0
-27 -3 49 1 8 0
-46 -33 -5 -42 -1 0
42 -18 -31 2 27 0
-49 26 -21 -12 23 0
7 -28 49 18 -48 0
13 -21 -2 -11 12 0
15 17 -30 -2 -1 0
-45 43 -36 -38 -49 0
-48 4 -19 16 -12 0
-1 -26 -43 7 -29 0
-22 -27 46 18 -5 0
-49 -15 -35 -26 41 0
-8 -3 -11 -38 -21 0
44 -41 13 46 -35 0
-42 27 -23 36 -1 0
-6 30 -19 -17 9 0
41 13 -11 -1 -37 0
5 11 -44 6 33 0
14 -8 21 5 47 0
40 25 17 -7 -38 0
1 48 21 -7 -15 0
46 -8 13 -5 50 0
44 20 31 22 -7 0
15 -20 -35 -47 -16 0
43 -33 -35 -28 13 0
6 26 23 -25 -13 0
-35 -49 46 37 -47 0
26 -35 -31 -9 42 0
-10 3 39 -27 -26 0
35 -29 48 13 -38 0
4 -24 -32 -16 -48 0
-37 15 -43 4 -41 0
12 -39 46 15 -34 0
-30 -50 40 -37 -1 0
-16 -15 -12 -41 -22 0
-1 -43 48 33 -11 0
49 22 5 -10 -9 0
8 -48 -10 2 -14 0
-13 49 4 -25 -46 0
15 27 22 -46 4 0
-12 6 35 1 -19 0
-17 39 21 -8 28 0
46 2 5 -45 -36 0
43 12 -25 -41 -36 0
7 45 -50 15 6 0
-43 35 28 -47 -42 0
-1 -9 32 -4 14 0
-4 29 -21 6 43 0
28 -38 2 -41 -9 0
-30 -37 -36 -18 40 0
23 18 -3 50 6 0
10 -26 -50 27 -21 0
-45 47 37 -2 19 0
-16 -1 -48 -8 -4 0
30 -37 -9 19 12 0
2 40 -3 25 -13 0
3 12 -5 -41 -20 0
30 19 -35 38 -6 0
-14 28 -38 4 -36 0
-42 15 -49 2 -26 0
1 -21 10 -18 3 0
45 44 13 23 -12 0
-13 42 -30 -36 -23 0
-37 -26 -45 25 -16 0
-18 -45 -11 25 48 0
16 12 42 17 -26 0
28 -40 -25 17 8 0
50 9 6 46 7 0
-25 -44 10 12 31 0
-12 38 40 -46 45 0
-47 -20 -35 40 42 0
-19 -14 5 -29 50 0
45 -36 3 17 -24 0
-35 -42 -19 -8 -10 0
-9 -32 -8 20 -34 0
4 46 22 -34 6 0
28 -18 -39 17 -21 0
-19 -34 45 -44 18 0
-10 46 -20 7 4 0
-22 -42 6 5 32 0
-30 50 -1 -44 47 0
-26 18 -27 -34 22 0
-44 -23 43 25 -9 0
-48 -33 -31 20 -10 0
22 4 -3 5 1 0
-6 20 -9 11 -3 0
-46 -28 -6 -15 -7 0
-48 32 -38 24 27 0
2 22 7 -47 13 0
34 12 30 -7 -38 0
-49 -37 44 -5 -13 0
-13 35 28 4 -12 0
-30 -46 14 25 3 0
7 -11 38 -8 33 0
-6 32 46 5 29 0
-2 31 -40 -6 22 0
29 1 -39 48 7 0
-11 20 -2 -18 -42 0
13 -50 -18 -10 -35 0
-1 28 -49 -39 38 0
17 26 -15 -49 -38 0
-45 -7 -29 -38 -37 0
23 -14 -6 -15 -48 0
-39 -42 4 27 37 0
-37 29 -44 -27 -2 0
-18 -14 -45 25 -5 0
33 -15 40 9 32 0
-15 -45 -16 5 -34 0
46 -14 -34 -32 -26 0
40 -28 2 29 46 0
30 39 33 44 27 0
-35 -40 -50 -8 -9 0
43 -18 3 -47 15 0
-43 -40 -7 -50 5 0
27 -30 11 28 3 0
43 -45 6 -27 -22 0
-15 25 -19 -43 7 0
-3 42 12 30 -18 0
46 -29 -32 -19 1 0
19 49 -43 25 -23 0
-3 -2 1 -5 41 0
22 33 7 -12 -26 0
-6 -8 9 34 42 0
-7 38 26 43 41 0
-22 -5 32 50 -19 0
-28 -44 27 -22 47 0
2 31 -45 30 -18 0
-3 5 -25 -4 -2 0
-42 -35 -7 -5 -23 0
18 41 20 -33 -17 0
-47 24 45 26 -40 0
-46 -5 -48 -12 22 0
-34 -24 2 -12 50 0
2 5 -26 10 45 0
-34 -35 -40 -24 -39 0
-13 31 21 -38 32 0
12 36 -32 25 20 0
8 48 -34 -10 16 0
-35 43 -25 36 -44 0
18 35 -21 -33 37 0
34 -14 39 -40 28 0
9 -22 13 36 8 0
45 46 4 3 41 0
-34 -10 -1 -28 -8 0
-15 -40 -2 33 47 0
-6 -17 15 38 -5 0
16 40 19 -14 41 0
-44 37 -17 34 -50 0
-32 -33 50 17 -7 0
39 28 -27 17 10 0
24 -35 -4 -3 18 0
31 25 -7 39 -1 0
-43 15 -5 -28 16 0
12 28 2 -22 13 0
-33 24 -30 -13 -21 0
34 -25 47 -24 38 0
-12 -15 43 41 -19 0
-13 26 -12 3 50 0
47 -42 50 -28 45 0
-1 5 11 -6 45 0
4 24 -36 49 -35 0
-8 48 41 14 39 0
-2 5 -41 -48 50 0
28 48 24 33 4 0
-37 5 -49 22 -38 0
-22 31 32 18 34 0
-3 8 -23 14 48 0
-39 6 31 -22 -26 0
8 -50 26 17 28 0
43 38 1 -6 11 0
23 7 16 -42 -19 0
-28 -7 -14 44 -46 0
-34 14 -4 -5 33 0
-21 -16 -5 8 -4 0
25 -42 8 -43 -19 0
41 7 -30 25 -18 0
21 2 -40 -46 31 0
2 -29 -5 -44 48 0
6 -43 -4 -42 14 0
-17 5 -34 35 -18 0
-47 -15 49 -44 25 0
47 -28 49 19 22 0
-50 30 -8 -32 -13 0
-6 1 -48 -2 -44 0
33 38 -28 -3 27 0
-41 8 -13 -44 48 0
-1 2 51 0
1 2 -51 0
-1 -2 -51 0
1 -2 51 0
3 6 52 0
-3 6 -52 0
3 -6 -52 0
-3 -6 52 0
-9 10 53 0
9 10 -53 0
-9 -10 -53 0
9 -10 53 0
-11 -12 54 0
11 -12 -54 0
-11 12 -54 0
11 12 54 0
-13 14 55 0
13 14 -55 0
-13 -14 -55 0
13 -14 55 0
-16 -17 56 0
16 -17 -56 0
-16 17 -56 0
16 17 56 0
22 27 57 0
-22 27 -57 0
22 -27 -57 0
-22 -27 57 0
29 31 58 0
-29 31 -58 0
29 -31 -58 0
-29 -31 58 0
34 35 59 0
-34 35 -59 0
34 -35 -59 0
-34 -35 59 0
-36 38 60 0
36 38 -60 0
-36 -38 -60 0
36 -38 60 0
-41 -42 61 0
41 -42 -61 0
-41 42 -61 0
41 42 61 0
-45 -46 62 0
45 -46 -62 0
-45 46 -62 0
45 46 62 0
47 48 63 0
-47 48 -63 0
47 -48 -63 0
-47 -48 63 0
-49 50 64 0
49 50 -64 0
-49 -50 -64 0
49 -50 64 0
51 -52 65 0
-51 -52 -65 0
51 52 -65 0
-51 52 65 0
53 -54 66 0
-53 -54 -66 0
53 54 -66 0
-53 54 66 0
55 -56 67 0
-55 -56 -67 0
55 56 -67 0
-55 56 67 0
57 -58 68 0
-57 -58 -68 0
57 58 -68 0
-57 58 68 0
59 -60 69 0
-59 -60 -69 0
59 60 -69 0
-59 60 69 0
61 -62 70 0
-61 -62 -70 0
61 62 -70 0
-61 62 70 0
63 -64 71 0
-63 -64 -71 0
63 64 -71 0
-63 64 71 0
65 -66 72 0
-65 -66 -72 0
65 66 -72 0
-65 66 72 0
67 -68 73 0
-67 -68 -73 0
67 68 -73 0
-67 68 73 0
69 -70 74 0
-69 -70 -74 0
69 70 -74 0
-69 70 74 0
71 -72 75 0
-71 -72 -75 0
71 72 -75 0
-71 72 75 0
73 -74 76 0
-73 -74 -76 0
73 74 -76 0
-73 74 76 0
75 76 0
-75 -76 0
-1 -4 77 0
1 -4 -77 0
-1 4 -77 0
1 4 77 0
7 8 78 0
-7 8 -78 0
7 -8 -78 0
-7 -8 78 0
-9 -11 79 0
9 -11 -79 0
-9 11 -79 0
9 11 79 0
16 -18 80 0
-16 -18 -80 0
16 18 -80 0
-16 18 80 0
-19 -20 81 0
19 -20 -81 0
-19 20 -81 0
19 20 81 0
-21 22 82 0
21 22 -82 0
-21 -22 -82 0
21 -22 82 0
23 -27 83 0
-23 -27 -83 0
23 27 -83 0
-23 27 83 0
-28 -31 84 0
28 -31 -84 0
-28 31 -84 0
28 31 84 0
-33 35 85 0
33 35 -85 0
-33 -35 -85 0
33 -35 85 0
-39 -40 86 0
39 -40 -86 0
-39 40 -86 0
39 40 86 0
-41 42 87 0
41 42 -87 0
-41 -42 -87 0
41 -42 87 0
-44 -46 88 0
44 -46 -88 0
-44 46 -88 0
44 46 88 0
47 -49 89 0
-47 -49 -89 0
47 49 -89 0
-47 49 89 0
77 -78 90 0
-77 -78 -90 0
77 78 -90 0
-77 78 90 0
79 -80 91 0
-79 -80 -91 0
79 80 -91 0
-79 80 91 0
81 -82 92 0
-81 -82 -92 0
81 82 -92 0
-81 82 92 0
83 -84 93 0
-83 -84 -93 0
83 84 -93 0
-83 84 93 0
85 -86 94 0
-85 -86 -94 0
85 86 -94 0
-85 86 94 0
87 -88 95 0
-87 -88 -95 0
87 88 -95 0
-87 88 95 0
89 -90 96 0
-89 -90 -96 0
89 90 -96 0
-89 90 96 0
91 -92 97 0
-91 -92 -97 0
91 92 -97 0
-91 92 97 0
93 -94 98 0
-93 -94 -98 0
93 94 -98 0
-93 94 98 0
95 -96 99 0
-95 -96 -99 0
95 96 -99 0
-95 96 99 0
97 -98 100 0
-97 -98 -100 0
97 98 -100 0
-97 98 100 0
99 100 0
-99 -100 0
-2 5 101 0
2 5 -101 0
-2 -5 -101 0
2 -5 101 0
7 9 102 0
-7 9 -102 0
7 -9 -102 0
-7 -9 102 0
-11 -12 103 0
11 -12 -103 0
-11 12 -103 0
11 12 103 0
14 15 104 0
-14 15 -104 0
14 -15 -104 0
-14 -15 104 0
-16 -17 105 0
16 -17 -105 0
-16 17 -105 0
16 17 105 0
18 -20 106 0
-18 -20 -106 0
18 20 -106 0
-18 20 106 0
23 24 107 0
-23 24 -107 0
23 -24 -107 0
-23 -24 107 0
25 -26 108 0
-25 -26 -108 0
25 26 -108 0
-25 26 108 0
-27 29 109 0
27 29 -109 0
-27 -29 -109 0
27 -29 109 0
-30 -32 110 0
30 -32 -110 0
-30 32 -110 0
30 32 110 0
-33 35 111 0
33 35 -111 0
-33 -35 -111 0
33 -35 111 0
36 -37 112 0
-36 -37 -112 0
36 37 -112 0
-36 37 112 0
-39 44 113 0
39 44 -113 0
-39 -44 -113 0
39 -44 113 0
-45 -46 114 0
45 -46 -114 0
-45 46 -114 0
45 46 114 0
-48 50 115 0
48 50 -115 0
-48 -50 -115 0
48 -50 115 0
101 -102 116 0
-101 -102 -116 0
101 102 -116 0
-101 102 116 0
103 -104 117 0
-103 -104 -117 0
103 104 -117 0
-103 104 117 0
105 -106 118 0
-105 -106 -118 0
105 106 -118 0
-105 106 118 0
107 -108 119 0
-107 -108 -119 0
107 108 -119 0
-107 108 119 0
109 -110 120 0
-109 -110 -120 0
109 110 -120 0
-109 110 120 0
111 -112 121 0
-111 -112 -121 0
111 112 -121 0
-111 112 121 0
113 -114 122 0
-113 -114 -122 0
113 114 -122 0
-113 114 122 0
115 -116 123 0
-115 -116 -123 0
115 116 -123 0
-115 116 123 0
117 -118 124 0
-117 -118 -124 0
117 118 -124 0
-117 118 124 0
119 -120 125 0
-119 -120 -125 0
119 120 -125 0
-119 120 125 0
121 -122 126 0
-121 -122 -126 0
121 122 -126 0
-121 122 126 0
123 -124 127 0
-123 -124 -127 0
123 124 -127 0
-123 124 127 0
125 -126 128 0
-125 -126 -128 0
125 126 -128 0
-125 126 128 0
127 128 0
-127 -128 0
2 -4 129 0
-2 -4 -129 0
2 4 -129 0
-2 4 129 0
5 -11 130 0
-5 -11 -130 0
5 11 -130 0
-5 11 130 0
-12 19 131 0
12 19 -131 0
-12 -19 -131 0
12 -19 131 0
23 -27 132 0
-23 -27 -132 0
23 27 -132 0
-23 27 132 0
32 38 133 0
-32 38 -133 0
32 -38 -133 0
-32 -38 133 0
44 -47 134 0
-44 -47 -134 0
44 47 -134 0
-44 47 134 0
48 -49 135 0
-48 -49 -135 0
48 49 -135 0
-48 49 135 0
128 -129 136 0
-128 -129 -136 0
128 129 -136 0
-128 129 136 0
130 -131 137 0
-130 -131 -137 0
130 131 -137 0
-130 131 137 0
132 -133 138 0
-132 -133 -138 0
132 133 -138 0
-132 133 138 0
134 -135 139 0
-134 -135 -139 0
134 135 -139 0
-134 135 139 0
136 -137 140 0
-136 -137 -140 0
136 137 -140 0
-136 137 140 0
138 -139 141 0
-138 -139 -141 0
138 139 -141 0
-138 139 141 0
140 141 0
-140 -141 0
2 3 142 0
-2 3 -142 0
2 -3 -142 0
-2 -3 142 0
-4 -7 143 0
4 -7 -143 0
-4 7 -143 0
4 7 143 0
-8 -9 144 0
8 -9 -144 0
-8 9 -144 0
8 9 144 0
-10 15 145 0
10 15 -145 0
-10 -15 -145 0
10 -15 145 0
-16 17 146 0
16 17 -146 0
-16 -17 -146 0
16 -17 146 0
20 21 147 0
-20 21 -147 0
20 -21 -147 0
-20 -21 147 0
23 25 148 0
-23 25 -148 0
23 -25 -148 0
-23 -25 148 0
26 -27 149 0
-26 -27 -149 0
26 27 -149 0
-26 27 149 0
-28 30 150 0
28 30 -150 0
-28 -30 -150 0
28 -30 150 0
-31 -32 151 0
31 -32 -151 0
-31 32 -151 0
31 32 151 0
-34 36 152 0
34 36 -152 0
-34 -36 -152 0
34 -36 152 0
37 38 153 0
-37 38 -153 0
37 -38 -153 0
-37 -38 153 0
39 -40 154 0
-39 -40 -154 0
39 40 -154 0
-39 40 154 0
41 45 155 0
-41 45 -155 0
41 -45 -155 0
-41 -45 155 0
141 -142 156 0
-141 -142 -156 0
141 142 -156 0
-141 142 156 0
143 -144 157 0
-143 -144 -157 0
143 144 -157 0
-143 144 157 0
145 -146 158 0
-145 -146 -158 0
145 146 -158 0
-145 146 158 0
147 -148 159 0
-147 -148 -159 0
147 148 -159 0
-147 148 159 0
149 -150 160 0
-149 -150 -160 0
149 150 -160 0
-149 150 160 0
151 -152 161 0
-151 -152 -161 0
151 152 -161 0
-151 152 161 0
153 -154 162 0
-153 -154 -162 0
153 154 -162 0
-153 154 162 0
155 -156 163 0
-155 -156 -163 0
155 156 -163 0
-155 156 163 0
157 -158 164 0
-157 -158 -164 0
157 158 -164 0
-157 158 164 0
159 -160 165 0
-159 -160 -165 0
159 160 -165 0
-159 160 165 0
161 -162 166 0
-161 -162 -166 0
161 162 -166 0
-161 162 166 0
163 -164 167 0
-163 -164 -167 0
163 164 -167 0
-163 164 167 0
165 -166 168 0
-165 -166 -168 0
165 166 -168 0
-165 166 168 0
167 168 0
-167 -168 0
-1 3 169 0
1 3 -169 0
-1 -3 -169 0
1 -3 169 0
6 8 170 0
-6 8 -170 0
6 -8 -170 0
-6 -8 170 0
9 10 171 0
-9 10 -171 0
9 -10 -171 0
-9 -10 171 0
11 12 172 0
-11 12 -172 0
11 -12 -172 0
-11 -12 172 0
13 -15 173 0
-13 -15 -173 0
13 15 -173 0
-13 15 173 0
16 -17 174 0
-16 -17 -174 0
16 17 -174 0
-16 17 174 0
-19 20 175 0
19 20 -175 0
-19 -20 -175 0
19 -20 175 0
23 26 176 0
-23 26 -176 0
23 -26 -176 0
-23 -26 176 0
30 31 177 0
-30 31 -177 0
30 -31 -177 0
-30 -31 177 0
-36 -39 178 0
36 -39 -178 0
-36 39 -178 0
36 39 178 0
-40 41 179 0
40 41 -179 0
-40 -41 -179 0
40 -41 179 0
42 -43 180 0
-42 -43 -180 0
42 43 -180 0
-42 43 180 0
44 -45 181 0
-44 -45 -181 0
44 45 -181 0
-44 45 181 0
49 50 182 0
-49 50 -182 0
49 -50 -182 0
-49 -50 182 0
169 -170 183 0
-169 -170 -183 0
169 170 -183 0
-169 170 183 0
171 -172 184 0
-171 -172 -184 0
171 172 -184 0
-171 172 184 0
173 -174 185 0
-173 -174 -185 0
173 174 -185 0
-173 174 185 0
175 -176 186 0
-175 -176 -186 0
175 176 -186 0
-175 176 186 0
177 -178 187 0
-177 -178 -187 0
177 178 -187 0
-177 178 187 0
179 -180 188 0
-179 -180 -188 0
179 180 -188 0
-179 180 188 0
181 -182 189 0
-181 -182 -189 0
181 182 -189 0
-181 182 189 0
183 -184 190 0
-183 -184 -190 0
183 184 -190 0
-183 184 190 0
185 -186 191 0
-185 -186 -191 0
185 186 -191 0
-185 186 191 0
187 -188 192 0
-187 -188 -192 0
187 188 -192 0
-187 188 192 0
189 -190 193 0
-189 -190 -193 0
189 190 -193 0
-189 190 193 0
191 -192 194 0
-191 -192 -194 0
191 192 -194 0
-191 192 194 0
193 194 0
-193 -194 0
3 -5 195 0
-3 -5 -195 0
3 5 -195 0
-3 5 195 0
-7 8 196 0
7 8 -196 0
-7 -8 -196 0
7 -8 196 0
9 -14 197 0
-9 -14 -197 0
9 14 -197 0
-9 14 197 0
15 17 198 0
-15 17 -198 0
15 -17 -198 0
-15 -17 198 0
-19 21 199 0
19 21 -199 0
-19 -21 -199 0
19 -21 199 0
22 -23 200 0
-22 -23 -200 0
22 23 -200 0
-22 23 200 0
24 -25 201 0
-24 -25 -201 0
24 25 -201 0
-24 25 201 0
26 27 202 0
-26 27 -202 0
26 -27 -202 0
-26 -27 202 0
-28 -29 203 0
28 -29 -203 0
-28 29 -203 0
28 29 203 0
-30 -34 204 0
30 -34 -204 0
-30 34 -204 0
30 34 204 0
36 -37 205 0
-36 -37 -205 0
36 37 -205 0
-36 37 205 0
-40 43 206 0
40 43 -206 0
-40 -43 -206 0
40 -43 206 0
-45 46 207 0
45 46 -207 0
-45 -46 -207 0
45 -46 207 0
-47 49 208 0
47 49 -208 0
-47 -49 -208 0
47 -49 208 0
194 -195 209 0
-194 -195 -209 0
194 195 -209 0
-194 195 209 0
196 -197 210 0
-196 -197 -210 0
196 197 -210 0
-196 197 210 0
198 -199 211 0
-198 -199 -211 0
198 199 -211 0
-198 199 211 0
200 -201 212 0
-200 -201 -212 0
200 201 -212 0
-200 201 212 0
202 -203 213 0
-202 -203 -213 0
202 203 -213 0
-202 203 213 0
204 -205 214 0
-204 -205 -214 0
204 205 -214 0
-204 205 214 0
206 -207 215 0
-206 -207 -215 0
206 207 -215 0
-206 207 215 0
208 -209 216 0
-208 -209 -216 0
208 209 -216 0
-208 209 216 0
210 -211 217 0
-210 -211 -217 0
210 211 -217 0
-210 211 217 0
212 -213 218 0
-212 -213 -218 0
212 213 -218 0
-212 213 218 0
214 -215 219 0
-214 -215 -219 0
214 215 -219 0
-214 215 219 0
216 -217 220 0
-216 -217 -220 0
216 217 -220 0
-216 217 220 0
218 -219 221 0
-218 -219 -221 0
218 219 -221 0
-218 219 221 0
220 221 0
-220 -221 0
-1 2 222 0
1 2 -222 0
-1 -2 -222 0
1 -2 222 0
3 4 223 0
-3 4 -223 0
3 -4 -223 0
-3 -4 223 0
6 -8 224 0
-6 -8 -224 0
6 8 -224 0
-6 8 224 0
-10 -13 225 0
10 -13 -225 0
-10 13 -225 0
10 13 225 0
15 19 226 0
-15 19 -226 0
15 -19 -226 0
-15 -19 226 0
21 22 227 0
-21 22 -227 0
21 -22 -227 0
-21 -22 227 0
-23 25 228 0
23 25 -228 0
-23 -25 -228 0
23 -25 228 0
26 -28 229 0
-26 -28 -229 0
26 28 -229 0
-26 28 229 0
29 31 230 0
-29 31 -230 0
29 -31 -230 0
-29 -31 230 0
-32 40 231 0
32 40 -231 0
-32 -40 -231 0
32 -40 231 0
42 -43 232 0
-42 -43 -232 0
42 43 -232 0
-42 43 232 0
-44 47 233 0
44 47 -233 0
-44 -47 -233 0
44 -47 233 0
221 -222 234 0
-221 -222 -234 0
221 222 -234 0
-221 222 234 0
223 -224 235 0
-223 -224 -235 0
223 224 -235 0
-223 224 235 0
225 -226 236 0
-225 -226 -236 0
225 226 -236 0
-225 226 236 0
227 -228 237 0
-227 -228 -237 0
227 228 -237 0
-227 228 237 0
229 -230 238 0
-229 -230 -238 0
229 230 -238 0
-229 230 238 0
231 -232 239 0
-231 -232 -239 0
231 232 -239 0
-231 232 239 0
233 -234 240 0
-233 -234 -240 0
233 234 -240 0
-233 234 240 0
235 -236 241 0
-235 -236 -241 0
235 236 -241 0
-235 236 241 0
237 -238 242 0
-237 -238 -242 0
237 238 -242 0
-237 238 242 0
239 -240 243 0
-239 -240 -243 0
239 240 -243 0
-239 240 243 0
241 -242 244 0
-241 -242 -244 0
241 242 -244 0
-241 242 244 0
243 244 0
-243 -244 0
3 4 245 0
-3 4 -245 0
3 -4 -245 0
-3 -4 245 0
-5 9 246 0
5 9 -246 0
-5 -9 -246 0
5 -9 246 0
10 11 247 0
-10 11 -247 0
10 -11 -247 0
-10 -11 247 0
-13 -15 248 0
13 -15 -248 0
-13 15 -248 0
13 15 248 0
20 -22 249 0
-20 -22 -249 0
20 22 -249 0
-20 22 249 0
-24 -26 250 0
24 -26 -250 0
-24 26 -250 0
24 26 250 0
-27 -29 251 0
27 -29 -251 0
-27 29 -251 0
27 29 251 0
-30 31 252 0
30 31 -252 0
-30 -31 -252 0
30 -31 252 0
35 -37 253 0
-35 -37 -253 0
35 37 -253 0
-35 37 253 0
-38 -39 254 0
38 -39 -254 0
-38 39 -254 0
38 39 254 0
40 42 255 0
-40 42 -255 0
40 -42 -255 0
-40 -42 255 0
-44 46 256 0
44 46 -256 0
-44 -46 -256 0
44 -46 256 0
48 49 257 0
-48 49 -257 0
48 -49 -257 0
-48 -49 257 0
244 -245 258 0
-244 -245 -258 0
244 245 -258 0
-244 245 258 0
246 -247 259 0
-246 -247 -259 0
246 247 -259 0
-246 247 259 0
248 -249 260 0
-248 -249 -260 0
248 249 -260 0
-248 249 260 0
250 -251 261 0
-250 -251 -261 0
250 251 -261 0
-250 251 261 0
252 -253 262 0
-252 -253 -262 0
252 253 -262 0
-252 253 262 0
254 -255 263 0
-254 -255 -263 0
254 255 -263 0
-254 255 263 0
256 -257 264 0
-256 -257 -264 0
256 257 -264 0
-256 257 264 0
258 -259 265 0
-258 -259 -265 0
258 259 -265 0
-258 259 265 0
260 -261 266 0
-260 -261 -266 0
260 261 -266 0
-260 261 266 0
262 -263 267 0
-262 -263 -267 0
262 263 -267 0
-262 263 267 0
264 -265 268 0
-264 -265 -268 0
264 265 -268 0
-264 265 268 0
266 -267 269 0
-266 -267 -269 0
266 267 -269 0
-266 267 269 0
268 269 0
-268 -269 0
2 -3 270 0
-2 -3 -270 0
2 3 -270 0
-2 3 270 0
-4 5 271 0
4 5 -271 0
-4 -5 -271 0
4 -5 271 0
10 -14 272 0
-10 -14 -272 0
10 14 -272 0
-10 14 272 0
15 16 273 0
-15 16 -273 0
15 -16 -273 0
-15 -16 273 0
17 18 274 0
-17 18 -274 0
17 -18 -274 0
-17 -18 274 0
-19 20 275 0
19 20 -275 0
-19 -20 -275 0
19 -20 275 0
-27 28 276 0
27 28 -276 0
-27 -28 -276 0
27 -28 276 0
29 -30 277 0
-29 -30 -277 0
29 30 -277 0
-29 30 277 0
-32 -35 278 0
32 -35 -278 0
-32 35 -278 0
32 35 278 0
-36 -37 279 0
36 -37 -279 0
-36 37 -279 0
36 37 279 0
40 44 280 0
-40 44 -280 0
40 -44 -280 0
-40 -44 280 0
-45 -47 281 0
45 -47 -281 0
-45 47 -281 0
45 47 281 0
-48 -49 282 0
48 -49 -282 0
-48 49 -282 0
48 49 282 0
270 -271 283 0
-270 -271 -283 0
270 271 -283 0
-270 271 283 0
272 -273 284 0
-272 -273 -284 0
272 273 -284 0
-272 273 284 0
274 -275 285 0
-274 -275 -285 0
274 275 -285 0
-274 275 285 0
276 -277 286 0
-276 -277 -286 0
276 277 -286 0
-276 277 286 0
278 -279 287 0
-278 -279 -287 0
278 279 -287 0
-278 279 287 0
280 -281 288 0
-280 -281 -288 0
280 281 -288 0
-280 281 288 0
282 -283 289 0
-282 -283 -289 0
282 283 -289 0
-282 283 289 0
284 -285 290 0
-284 -285 -290 0
284 285 -290 0
-284 285 290 0
286 -287 291 0
-286 -287 -291 0
286 287 -291 0
-286 287 291 0
288 -289 292 0
-288 -289 -292 0
288 289 -292 0
-288 289 292 0
290 -291 293 0
-290 -291 -293 0
290 291 -293 0
-290 291 293 0
292 293 0
-292 -293 0
